(declare-fun a_ack!597 () (_ BitVec 64))
(declare-fun b_ack!596 () (_ BitVec 64))
(declare-fun CF_floor ((_ BitVec 64)) (_ FloatingPoint 11 53))
(assert (not (fp.leq ((_ to_fp 11 53) a_ack!597) ((_ to_fp 11 53) #x0000000000000000))))
(assert (not (fp.leq (fp.add roundNearestTiesToEven
                     ((_ to_fp 11 53) a_ack!597)
                     ((_ to_fp 11 53) b_ack!596))
             ((_ to_fp 11 53) #x0000000000000000))))
(assert (not (fp.eq ((_ to_fp 11 53) b_ack!596) ((_ to_fp 11 53) #x0000000000000000))))
(assert (fp.gt (fp.abs ((_ to_fp 11 53) b_ack!596))
       (fp.mul roundNearestTiesToEven
               ((_ to_fp 11 53) #x3fb999999999999a)
               ((_ to_fp 11 53) a_ack!597))))
(assert (fp.lt ((_ to_fp 11 53) a_ack!597) ((_ to_fp 11 53) #x4065600000000000)))
(assert (fp.eq (fp.sub roundNearestTiesToEven
               (fp.add roundNearestTiesToEven
                       ((_ to_fp 11 53) a_ack!597)
                       ((_ to_fp 11 53) b_ack!596))
               ((_ to_fp 11 53) a_ack!597))
       ((_ to_fp 11 53) b_ack!596)))
(assert (fp.eq (fp.sub roundNearestTiesToEven
               (fp.add roundNearestTiesToEven
                       ((_ to_fp 11 53) a_ack!597)
                       ((_ to_fp 11 53) b_ack!596))
               ((_ to_fp 11 53) b_ack!596))
       ((_ to_fp 11 53) a_ack!597)))
(assert (fp.lt (fp.add roundNearestTiesToEven
               ((_ to_fp 11 53) a_ack!597)
               ((_ to_fp 11 53) b_ack!596))
       ((_ to_fp 11 53) #x4065600000000000)))
(assert (not (fp.leq ((_ to_fp 11 53) a_ack!597) ((_ to_fp 11 53) #x0000000000000000))))
(assert (not (fp.lt ((_ to_fp 11 53) a_ack!597) ((_ to_fp 11 53) #x3fe0000000000000))))
(assert (not (fp.eq ((_ to_fp 11 53) a_ack!597) ((_ to_fp 11 53) #x3fe0000000000000))))
(assert (fp.leq ((_ to_fp 11 53) a_ack!597) ((_ to_fp 11 53) #x4065600000000000)))
(assert (not (fp.eq ((_ to_fp 11 53) a_ack!597) (CF_floor a_ack!597))))
(assert (let ((a!1 (fp.lt (fp.abs (fp.sub roundNearestTiesToEven
                                  ((_ to_fp 11 53) a_ack!597)
                                  ((_ to_fp 11 53) #x3ff0000000000000)))
                  ((_ to_fp 11 53) #x3f847ae147ae147b))))
  (not a!1)))
(assert (let ((a!1 (fp.lt (fp.abs (fp.sub roundNearestTiesToEven
                                  ((_ to_fp 11 53) a_ack!597)
                                  ((_ to_fp 11 53) #x4000000000000000)))
                  ((_ to_fp 11 53) #x3f847ae147ae147b))))
  (not a!1)))
(assert (not (fp.lt ((_ to_fp 11 53) a_ack!597) ((_ to_fp 11 53) #x4014000000000000))))
(assert (fp.lt ((_ to_fp 11 53) a_ack!597) ((_ to_fp 11 53) #x4024000000000000)))
(assert (let ((a!1 (fp.div roundNearestTiesToEven
                   (fp.sub roundNearestTiesToEven
                           (fp.mul roundNearestTiesToEven
                                   ((_ to_fp 11 53) #x4000000000000000)
                                   ((_ to_fp 11 53) a_ack!597))
                           ((_ to_fp 11 53) #x402e000000000000))
                   ((_ to_fp 11 53) #x4014000000000000))))
(let ((a!2 (fp.sub roundNearestTiesToEven
                   (fp.sub roundNearestTiesToEven
                           (fp.mul roundNearestTiesToEven
                                   ((_ to_fp 11 53) #x4000000000000000)
                                   a!1)
                           ((_ to_fp 11 53) #xbff0000000000000))
                   ((_ to_fp 11 53) #x3ff0000000000000))))
(let ((a!3 (fp.mul roundNearestTiesToEven
                   (fp.mul roundNearestTiesToEven
                           ((_ to_fp 11 53) #x4000000000000000)
                           (fp.div roundNearestTiesToEven
                                   a!2
                                   ((_ to_fp 11 53) #x4000000000000000)))
                   ((_ to_fp 11 53) #x0000000000000000))))
(let ((a!4 (fp.add roundNearestTiesToEven
                   ((_ to_fp 11 53) #x0000000000000000)
                   (fp.add roundNearestTiesToEven
                           (fp.add roundNearestTiesToEven
                                   (fp.abs a!3)
                                   ((_ to_fp 11 53) #x0000000000000000))
                           ((_ to_fp 11 53) #x3c10a82ef1780da1))))
      (a!5 (fp.mul roundNearestTiesToEven
                   (fp.mul roundNearestTiesToEven
                           ((_ to_fp 11 53) #x4000000000000000)
                           (fp.div roundNearestTiesToEven
                                   a!2
                                   ((_ to_fp 11 53) #x4000000000000000)))
                   (fp.add roundNearestTiesToEven
                           (fp.sub roundNearestTiesToEven
                                   a!3
                                   ((_ to_fp 11 53) #x0000000000000000))
                           ((_ to_fp 11 53) #xbc10a82ef1780da1)))))
(let ((a!6 (fp.add roundNearestTiesToEven
                   (fp.add roundNearestTiesToEven
                           (fp.abs a!5)
                           ((_ to_fp 11 53) #x0000000000000000))
                   ((_ to_fp 11 53) #x3c39908ebc7ca0ca))))
  (fp.eq (fp.sub roundNearestTiesToEven
                 (fp.add roundNearestTiesToEven a!4 a!6)
                 a!4)
         a!6)))))))
(assert (let ((a!1 (fp.div roundNearestTiesToEven
                   (fp.sub roundNearestTiesToEven
                           (fp.mul roundNearestTiesToEven
                                   ((_ to_fp 11 53) #x4000000000000000)
                                   ((_ to_fp 11 53) a_ack!597))
                           ((_ to_fp 11 53) #x402e000000000000))
                   ((_ to_fp 11 53) #x4014000000000000))))
(let ((a!2 (fp.sub roundNearestTiesToEven
                   (fp.sub roundNearestTiesToEven
                           (fp.mul roundNearestTiesToEven
                                   ((_ to_fp 11 53) #x4000000000000000)
                                   a!1)
                           ((_ to_fp 11 53) #xbff0000000000000))
                   ((_ to_fp 11 53) #x3ff0000000000000))))
(let ((a!3 (fp.mul roundNearestTiesToEven
                   (fp.mul roundNearestTiesToEven
                           ((_ to_fp 11 53) #x4000000000000000)
                           (fp.div roundNearestTiesToEven
                                   a!2
                                   ((_ to_fp 11 53) #x4000000000000000)))
                   ((_ to_fp 11 53) #x0000000000000000))))
(let ((a!4 (fp.add roundNearestTiesToEven
                   ((_ to_fp 11 53) #x0000000000000000)
                   (fp.add roundNearestTiesToEven
                           (fp.add roundNearestTiesToEven
                                   (fp.abs a!3)
                                   ((_ to_fp 11 53) #x0000000000000000))
                           ((_ to_fp 11 53) #x3c10a82ef1780da1))))
      (a!5 (fp.mul roundNearestTiesToEven
                   (fp.mul roundNearestTiesToEven
                           ((_ to_fp 11 53) #x4000000000000000)
                           (fp.div roundNearestTiesToEven
                                   a!2
                                   ((_ to_fp 11 53) #x4000000000000000)))
                   (fp.add roundNearestTiesToEven
                           (fp.sub roundNearestTiesToEven
                                   a!3
                                   ((_ to_fp 11 53) #x0000000000000000))
                           ((_ to_fp 11 53) #xbc10a82ef1780da1)))))
(let ((a!6 (fp.add roundNearestTiesToEven
                   (fp.add roundNearestTiesToEven
                           (fp.abs a!5)
                           ((_ to_fp 11 53) #x0000000000000000))
                   ((_ to_fp 11 53) #x3c39908ebc7ca0ca))))
  (fp.eq (fp.sub roundNearestTiesToEven
                 (fp.add roundNearestTiesToEven a!4 a!6)
                 a!6)
         a!4)))))))

(check-sat)
(exit)
